100
1000
200
199
199
199
197
197
196
196
196
196
196
196
195
194
194
193
191
191
190
190
190
189
188
188
187
187
186
185
185
185
184
184
184
184
184
183
183
182
182
181
181
180
180
179
177
176
176
176
176
175
175
174
173
173
172
172
172
171
171
171
171
170
170
169
169
169
169
169
168
168
167
167
166
166
165
165
165
165
164
163
163
163
162
161
161
161
158
155
154
154
154
153
153
153
152
152
151
151
151
150
